50
22195

374 267
559 492
556 903
656 994
32 581
318 692
530 191
254 628
784 440
431 336
180 288
280 399
883 57
794 544
799 584
78 32
266 111
984 503
737 18
591 52
536 143
110 407
704 692
673 578
570 133
860 660
6 288
336 778
941 395
173 242
193 648
352 455
924 595
205 523
373 78
149 98
712 230
204 633
985 660
669 21
399 995
218 338
304 677
914 687
486 884
163 940
740 974
426 297
398 324
606 59
